&CONTROL
   calculation      = 'scf'
   restart_mode     = 'from_scratch'
   outdir           = './tmp'
   prefix           = 'pw'
   etot_conv_thr    = 1e-05
   forc_conv_thr    = 0.0001
   pseudo_dir       = './'
/
&SYSTEM
   ecutwfc          = 50
   ecutrho          = 200
   occupations      = 'smearing'
   degauss          = 0.01
   smearing         = 'gaussian'
   input_dft        = 'pbe'
   ntyp             = 2
   nat              = 8
   ibrav            = 0
/
&ELECTRONS
   conv_thr         = 1e-08
   mixing_beta      = 0.35
   startingwfc      = 'random'
/
&IONS
/
&CELL
/
&FCP
/
&RISM
/
ATOMIC_SPECIES
Zn 65.38 Zn.pbe-dnl-kjpaw_psl.1.0.0.UPF
S 32.06 S.pbe-n-kjpaw_psl.1.0.0.UPF

K_POINTS gamma

CELL_PARAMETERS angstrom
5.38736575000000 0.00000000000000 0.00000000000000
0.00000000000000 5.38736575000000 0.00000000000000
0.00000000000000 0.00000000000000 5.38736575000000

ATOMIC_POSITIONS angstrom
Zn 0.0000000000 0.0000000000 0.0000000000  
Zn 0.0000000000 2.6936828750 2.6936828750  
Zn 2.6936828750 0.0000000000 2.6936828750  
Zn 2.6936828750 2.6936828750 0.0000000000  
S 1.3468414375 4.0405243125 4.0405243125  
S 1.3468414375 1.3468414375 1.3468414375  
S 4.0405243125 4.0405243125 1.3468414375  
S 4.0405243125 1.3468414375 4.0405243125  

