&CONTROL
   calculation      = 'scf'
   restart_mode     = 'from_scratch'
   outdir           = './tmp'
   prefix           = 'pw'
   etot_conv_thr    = 1e-05
   forc_conv_thr    = 0.0001
   pseudo_dir       = './'
/
&SYSTEM
   ecutwfc          = 50
   ecutrho          = 200
   occupations      = 'smearing'
   degauss          = 0.01
   smearing         = 'gaussian'
   input_dft        = 'pbe'
   ntyp             = 2
   nat              = 4
   ibrav            = 0
/
&ELECTRONS
   conv_thr         = 1e-08
   mixing_beta      = 0.35
   startingwfc      = 'random'
/
&IONS
/
&CELL
/
&FCP
/
&RISM
/
ATOMIC_SPECIES
B 10.81 B.pbe-n-kjpaw_psl.1.0.0.UPF
N 14.007 N.pbe-n-kjpaw_psl.1.0.0.UPF

K_POINTS automatic
8 8 3  0 0 0

CELL_PARAMETERS angstrom
2.50222554000000 0.00000000000000 0.00000000000000
-1.25111277000000 2.16699088363824 0.00000000000000
0.00000000000000 0.00000000000000 6.76565424000000

ATOMIC_POSITIONS angstrom
B 0.0000000000 0.0000000000 0.0000000000  
B -0.0000000125 1.4446605963 3.3828271200  
N -0.0000000125 1.4446605963 0.0000000000  
N 1.2511127825 0.7223302873 3.3828271200  

